SPARKNaCl/why3-z3/sparknacl-utils.adb_204_20_range_check2_1.smt2
;; produced by z3_gnatprove.drv ;;
(set-info :smt-lib-version 2.5)
(set-info :source |VC generated by SPARK 2014|)
(set-info :category industrial)
(set-info :status unknown)
;;; generated by SMT-LIB2 driver
;;; SMT-LIB2 driver: bit-vectors, common part
;;; SMT-LIB2: integer arithmetic
(declare-datatypes ()
  ((int__ref (int__refqtmk (int__content Int)))))

(declare-datatypes ()
  ((t__ref (t__refqtmk (t__content (_ BitVec 32))))))

;; "in_range"
(define-fun in_range ((x Int)) Bool
  (and (<= (- 2147483648) x) (<= x 2147483647)))

(declare-sort gf32_any_limb 0)

;; "gf32_any_limb'int"
(declare-fun gf32_any_limbqtint (gf32_any_limb) Int)

;; "gf32_any_limb'axiom"
(assert
  (forall ((i gf32_any_limb))
    (and
      (<= (- 65536) (gf32_any_limbqtint i))
      (<= (gf32_any_limbqtint i) 132051011))))

;; "in_range"
(define-fun in_range1 ((x Int)) Bool
  (and (<= (- 65536) x) (<= x 132051011)))

;; "to_rep"
(define-fun to_rep ((x gf32_any_limb)) Int
  (gf32_any_limbqtint x))

;; "of_rep"
(declare-fun of_rep (Int) gf32_any_limb)

;; "inversion_axiom"
(assert
  (forall ((x gf32_any_limb))
    (! (= (of_rep (to_rep x)) x) :pattern ((to_rep x)) )))

;; "range_axiom"
(assert
  (forall ((x gf32_any_limb))
    (! (in_range1 (to_rep x)) :pattern ((to_rep x)) )))

;; "coerce_axiom"
(assert
  (forall ((x Int))
    (! (=> (in_range1 x) (= (to_rep (of_rep x)) x)) :pattern ((to_rep
                                                                (of_rep x))) )))

(declare-sort map1 0)

(declare-datatypes ()
  ((map__ref (map__refqtmk (map__content map1)))))

;; "has_bounds"
(declare-fun has_bounds (map1
  Int
  Int) Bool)

;; "get"
(declare-fun get (map1
  Int) gf32_any_limb)

(declare-const swap Bool)

(declare-sort tinteger_32B 0)

;; "tinteger_32B'int"
(declare-fun tinteger_32Bqtint (tinteger_32B) Int)

;; "tinteger_32B'axiom"
(assert
  (forall ((i tinteger_32B))
    (and
      (<= (- 2147483648) (tinteger_32Bqtint i))
      (<= (tinteger_32Bqtint i) 2147483647))))

;; "in_range"
(define-fun in_range2 ((x Int)) Bool
  (and (<= (- 2147483648) x) (<= x 2147483647)))

;; "to_rep"
(define-fun to_rep1 ((x tinteger_32B)) Int
  (tinteger_32Bqtint x))

;; "of_rep"
(declare-fun of_rep1 (Int) tinteger_32B)

;; "inversion_axiom"
(assert
  (forall ((x tinteger_32B))
    (! (= (of_rep1 (to_rep1 x)) x) :pattern ((to_rep1 x)) )))

;; "range_axiom"
(assert
  (forall ((x tinteger_32B))
    (! (in_range2 (to_rep1 x)) :pattern ((to_rep1 x)) )))

;; "coerce_axiom"
(assert
  (forall ((x Int))
    (! (=> (in_range2 x) (= (to_rep1 (of_rep1 x)) x)) :pattern ((to_rep1
                                                                  (of_rep1 x))) )))

(declare-const p map1)

(declare-const q map1)

;; "q'unused"
(define-fun qqtunused () map__ref
  (map__refqtmk q))

;; "p'unused"
(define-fun pqtunused () map__ref
  (map__refqtmk p))

;; "Assume"
(assert (has_bounds p 0 15))

;; "Assume"
(assert (has_bounds q 0 15))

;; "temp___937"
(define-fun temp___937 () Bool
  swap)

;; "temp___old_1050'unused"
(define-fun temp___old_1050qtunused () map1
  q)

;; "map__content'result'unused"
(define-fun map__contentqtresultqtunused () map1
  q)

;; "temp___old_1045'unused"
(define-fun temp___old_1045qtunused () map1
  p)

;; "map__content'result'unused"
(define-fun map__contentqtresultqtunused1 () map1
  p)

;; "temp___old_1044'unused"
(define-fun temp___old_1044qtunused () map1
  q)

;; "map__content'result'unused"
(define-fun map__contentqtresultqtunused2 () map1
  q)

;; "temp___old_1043'unused"
(define-fun temp___old_1043qtunused () map1
  p)

;; "map__content'result'unused"
(define-fun map__contentqtresultqtunused3 () map1
  p)

;; "temp___old_1030'unused"
(define-fun temp___old_1030qtunused () map1
  q)

;; "map__content'result'unused"
(define-fun map__contentqtresultqtunused4 () map1
  q)

;; "temp___old_1025'unused"
(define-fun temp___old_1025qtunused () map1
  p)

;; "map__content'result'unused"
(define-fun map__contentqtresultqtunused5 () map1
  p)

;; "temp___old_1024'unused"
(define-fun temp___old_1024qtunused () map1
  p)

;; "map__content'result'unused"
(define-fun map__contentqtresultqtunused6 () map1
  p)

;; "temp___old_1023'unused"
(define-fun temp___old_1023qtunused () map1
  q)

;; "map__content'result'unused"
(define-fun map__contentqtresultqtunused7 () map1
  q)

;; "o"
(define-fun o () Int
  (ite swap 1 0))

;; "to_int'result'unused"
(define-fun to_intqtresultqtunused () Int
  o)

;; "o"
(define-fun o1 () (_ BitVec 32)
  ((_ int2bv 32) o))

;; "of_int'result'unused"
(define-fun of_intqtresultqtunused () (_ BitVec 32)
  o1)

;; "o"
(define-fun o2 () (_ BitVec 32)
  (bvmul #xFFFFFFFF o1))

;; "mul'result'unused"
(define-fun mulqtresultqtunused () (_ BitVec 32)
  o2)

;; "Ensures"
(assert true)

;; "range_check_'result'unused"
(define-fun range_check_qtresultqtunused () (_ BitVec 32)
  o2)

(declare-const c (_ BitVec 32))

;; "c'unused"
(define-fun cqtunused () t__ref
  (t__refqtmk c))

;; "H"
(assert (= c o2))

;; "Assume"
(assert true)

(declare-const i Int)

;; "i'unused"
(define-fun iqtunused () int__ref
  (int__refqtmk i))

;; "H"
(assert (= i 0))

;; "int__content'result'unused"
(define-fun int__contentqtresultqtunused () Int
  i)

;; "o"
(define-fun o3 () Bool
  (ite (<= i 15) true false))

;; "infix <='result'unused"
(define-fun infix_lseqqtresultqtunused () Bool
  o3)

;; "int__content'result'unused"
(define-fun int__contentqtresultqtunused1 () Int
  i)

;; "o"
(define-fun o4 () Bool
  (ite (<= 0 i) true false))

;; "infix <='result'unused"
(define-fun infix_lseqqtresultqtunused1 () Bool
  o4)

;; "o"
(define-fun o5 () Bool
  (and o4 o3))

;; "andb'result'unused"
(define-fun andbqtresultqtunused () Bool
  o5)

;; "H"
(assert (= o5 true))

;; "temp___loop_entry_981'unused"
(define-fun temp___loop_entry_981qtunused () map1
  q)

;; "map__content'result'unused"
(define-fun map__contentqtresultqtunused8 () map1
  q)

;; "temp___loop_entry_972'unused"
(define-fun temp___loop_entry_972qtunused () map1
  p)

;; "map__content'result'unused"
(define-fun map__contentqtresultqtunused9 () map1
  p)

;; "temp___loop_entry_963'unused"
(define-fun temp___loop_entry_963qtunused () map1
  p)

;; "map__content'result'unused"
(define-fun map__contentqtresultqtunused10 () map1
  p)

;; "temp___loop_entry_954'unused"
(define-fun temp___loop_entry_954qtunused () map1
  q)

;; "map__content'result'unused"
(define-fun map__contentqtresultqtunused11 () map1
  q)

;; "temp___loop_entry_949'unused"
(define-fun temp___loop_entry_949qtunused () map1
  q)

;; "map__content'result'unused"
(define-fun map__contentqtresultqtunused12 () map1
  q)

;; "temp___loop_entry_946'unused"
(define-fun temp___loop_entry_946qtunused () map1
  p)

;; "map__content'result'unused"
(define-fun map__contentqtresultqtunused13 () map1
  p)

;; "int__content'result'unused"
(define-fun int__contentqtresultqtunused2 () Int
  i)

;; "map__content'result'unused"
(define-fun map__contentqtresultqtunused14 () map1
  p)

;; "o"
(define-fun o6 () gf32_any_limb
  (get p i))

;; "get'result'unused"
(define-fun getqtresultqtunused () gf32_any_limb
  o6)

(declare-const o7 Int)

;; "Ensures"
(assert (= (to_rep o6) o7))

;; "to_rep'result'unused"
(define-fun to_repqtresultqtunused () Int
  o7)

;; "Ensures"
(assert (in_range o7))

;; "range_check_'result'unused"
(define-fun range_check_qtresultqtunused1 () Int
  o7)

;; "param__p"
(define-fun param__p () int__ref
  (int__refqtmk o7))

;; "int__ref'mk'result'unused"
(define-fun int__refqtmkqtresultqtunused () int__ref
  param__p)

;; "int__content'result'unused"
(define-fun int__contentqtresultqtunused3 () Int
  i)

;; "int__content'result'unused"
(define-fun int__contentqtresultqtunused4 () Int
  i)

;; "map__content'result'unused"
(define-fun map__contentqtresultqtunused15 () map1
  q)

;; "o"
(define-fun o8 () gf32_any_limb
  (get q i))

;; "get'result'unused"
(define-fun getqtresultqtunused1 () gf32_any_limb
  o8)

(declare-const o9 Int)

;; "Ensures"
(assert (= (to_rep o8) o9))

;; "to_rep'result'unused"
(define-fun to_repqtresultqtunused1 () Int
  o9)

;; "Ensures"
(assert (in_range o9))

;; "range_check_'result'unused"
(define-fun range_check_qtresultqtunused2 () Int
  o9)

;; "param__q"
(define-fun param__q () int__ref
  (int__refqtmk o9))

;; "int__ref'mk'result'unused"
(define-fun int__refqtmkqtresultqtunused1 () int__ref
  param__q)

;; "int__content'result'unused"
(define-fun int__contentqtresultqtunused5 () Int
  i)

;; "t__content'result'unused"
(define-fun t__contentqtresultqtunused () (_ BitVec 32)
  c)

;; "param__p'unused"
(define-fun param__pqtunused () int__ref
  param__p)

;; "param__q'unused"
(define-fun param__qqtunused () int__ref
  param__q)

(declare-const param__p1 Int)

(declare-const param__q1 Int)

;; "param__q'unused"
(define-fun param__qqtunused1 () int__ref
  (int__refqtmk param__q1))

;; "param__p'unused"
(define-fun param__pqtunused1 () int__ref
  (int__refqtmk param__p1))

;; "H"
(assert (=> (= c #xFFFFFFFF) (and (= param__p1 o9) (= param__q1 o7))))

;; "H"
(assert (=> (= c #x00000000) (and (= param__p1 o7) (= param__q1 o9))))

;; "H"
(assert (in_range param__p1))

;; "H"
(assert (in_range param__q1))

;; "H"
(assert true)

;; "H"
(assert true)

;; "int__content'result'unused"
(define-fun int__contentqtresultqtunused6 () Int
  param__p1)

;; Goal "def'vc"
;; File "sparknacl-utils.adb", line 81, characters 0-0
(assert
  (not (<= param__p1 132051011)))

(check-sat)
